(set-logic ALL)
(set-option :produce-models true)
(declare-sort BoundSet 0)
(declare-sort UnboundSet 0)
(set-option :finite-model-find true)
(declare-fun IsInMouth (BoundSet) Bool)
(declare-fun IsBrown (BoundSet) Bool)
(assert (not (=> (exists ((b BoundSet)) (IsInMouth b)) (exists ((a BoundSet)) (IsBrown a)))))
(check-sat)
(get-model)